30
30
1
3
3600
471 566 618 625 636 681 837 905 1003 1025 1051 1108 1116 1163 1203 1535 1982 2042 2240 2269 2312 2417 2444 2455 2456 2468 2610 2630 2684 2796 
38 23 5 30 5 25 31 21 12 32 12 17 22 23 17 31 18 8 31 31 16 11 20 15 9 22 27 18 32 20 
